VertexID	Color
6	1
12	1
25	1
54	1
80	1
31	1
37	1
68	1
56	1
9	2
11	2
23	2
62	2
34	2
40	2
46	2
69	2
75	2
1	3
16	3
22	3
63	3
35	3
39	3
50	3
78	3
65	3
4	4
17	4
19	4
81	4
43	4
32	4
47	4
60	4
66	4
7	5
13	5
20	5
36	5
71	5
42	5
48	5
59	5
73	5
8	6
14	6
21	6
45	6
52	6
33	6
67	6
55	6
74	6
3	7
10	7
72	7
44	7
29	7
51	7
77	7
58	7
2	8
18	8
24	8
53	8
70	8
28	8
41	8
76	8
15	9
26	9
61	9
30	9
49	9
5	10
27	10
79	10
38	10
57	10
64	10
